
Gurobi 11.0.0 (win64) logging started Thu Apr 18 15:13:20 2024

Set parameter LogFile to value "./Results/StripPacking_CutsTest_SU/Logs/SU-StripPacking-15.log"
Set parameter TimeLimit to value 3600
Set parameter Cuts to value 1
Set parameter Presolve to value 1
Set parameter Heuristics to value 1
Gurobi Optimizer version 11.0.0 build v11.0.0rc2 (win64 - Windows 10.0 (19045.2))

CPU model: Intel(R) Core(TM) i9-10980XE CPU @ 3.00GHz, instruction set [SSE2|AVX|AVX2|AVX512]
Thread count: 18 physical cores, 36 logical processors, using up to 18 threads

Optimize a model with 1380 rows, 451 columns and 3390 nonzeros
Model fingerprint: 0xcfe58511
Variable types: 31 continuous, 420 integer (420 binary)
Coefficient statistics:
  Matrix range     [1e+00, 3e+02]
  Objective range  [1e+00, 1e+00]
  Bounds range     [1e+00, 3e+02]
  RHS range        [1e+00, 3e+02]
Presolve removed 13 rows and 3 columns
Presolve time: 0.00s
Presolved: 1367 rows, 448 columns, 4143 nonzeros
Variable types: 31 continuous, 417 integer (417 binary)

Root relaxation: objective 1.690000e+02, 309 iterations, 0.00 seconds (0.00 work units)

    Nodes    |    Current Node    |     Objective Bounds      |     Work
 Expl Unexpl |  Obj  Depth IntInf | Incumbent    BestBd   Gap | It/Node Time

     0     0  169.00000    0   45          -  169.00000      -     -    0s
     0     0  183.09267    0  154          -  183.09267      -     -    0s
     0     0  204.27559    0  126          -  204.27559      -     -    0s
     0     0  206.04942    0  109          -  206.04942      -     -    0s
     0     0  208.30233    0  113          -  208.30233      -     -    0s
     0     0  208.47957    0  119          -  208.47957      -     -    0s
     0     0  208.47957    0  118          -  208.47957      -     -    0s
     0     0  236.02451    0  107          -  236.02451      -     -    0s
     0     0  236.90590    0  104          -  236.90590      -     -    0s
     0     0  236.93314    0  110          -  236.93314      -     -    0s
     0     0  236.93314    0  111          -  236.93314      -     -    0s
     0     0  251.58269    0   95          -  251.58269      -     -    0s
     0     0  251.58269    0   97          -  251.58269      -     -    0s
     0     0  255.87077    0   98          -  255.87077      -     -    0s
     0     0  255.87077    0   94          -  255.87077      -     -    0s
     0     0  255.87077    0   95          -  255.87077      -     -    0s
     0     0  256.37856    0   97          -  256.37856      -     -    0s
     0     0  272.00000    0   26          -  272.00000      -     -    0s
     0     0  272.00000    0   39          -  272.00000      -     -    0s
     0     0  272.00000    0   57          -  272.00000      -     -    0s
     0     0  272.00000    0   45          -  272.00000      -     -    0s
     0     0  272.00000    0   22          -  272.00000      -     -    0s
     0     0  272.00000    0   53          -  272.00000      -     -    0s
     0     0  272.00000    0   31          -  272.00000      -     -    0s
     0     0  272.00000    0   39          -  272.00000      -     -    0s
     0     0  272.00000    0   34          -  272.00000      -     -    0s
     0     0  272.00000    0   25          -  272.00000      -     -    0s
     0     2  272.00000    0   19          -  272.00000      -     -    2s
H 5391  1571                     300.0000000  281.00000  6.33%   8.2    5s

Cutting planes:
  Learned: 18
  Cover: 11
  Clique: 2
  StrongCG: 1
  Flow cover: 5
  RLT: 1

Explored 5509 nodes (60845 simplex iterations) in 5.75 seconds (7.41 work units)
Thread count was 18 (of 36 available processors)

Solution count 1: 300 

Optimal solution found (tolerance 1.00e-04)
Best objective 3.000000000000e+02, best bound 3.000000000000e+02, gap 0.0000%

Gurobi 11.0.0 (win64) logging started Thu Apr 18 15:13:26 2024

Set parameter LogFile to value "./Results/StripPacking_CutsTest_SU/Logs/SU-StripPacking-15.log"
Set parameter TimeLimit to value 3600
Set parameter Cuts to value 1
Set parameter Presolve to value 0
Set parameter Heuristics to value 0
Gurobi Optimizer version 11.0.0 build v11.0.0rc2 (win64 - Windows 10.0 (19045.2))

CPU model: Intel(R) Core(TM) i9-10980XE CPU @ 3.00GHz, instruction set [SSE2|AVX|AVX2|AVX512]
Thread count: 18 physical cores, 36 logical processors, using up to 18 threads

Optimize a model with 1380 rows, 451 columns and 3390 nonzeros
Model fingerprint: 0xcfe58511
Variable types: 31 continuous, 420 integer (420 binary)
Coefficient statistics:
  Matrix range     [1e+00, 3e+02]
  Objective range  [1e+00, 1e+00]
  Bounds range     [1e+00, 3e+02]
  RHS range        [1e+00, 3e+02]
Variable types: 31 continuous, 420 integer (420 binary)

Root relaxation: objective 1.500000e+02, 368 iterations, 0.00 seconds (0.01 work units)

    Nodes    |    Current Node    |     Objective Bounds      |     Work
 Expl Unexpl |  Obj  Depth IntInf | Incumbent    BestBd   Gap | It/Node Time

     0     0  150.00000    0   66          -  150.00000      -     -    0s
     0     0  169.00000    0   59          -  169.00000      -     -    0s
     0     0  184.76256    0  164          -  184.76256      -     -    0s
     0     0  208.73354    0  148          -  208.73354      -     -    0s
     0     0  217.54745    0  134          -  217.54745      -     -    0s
     0     0  218.41919    0  128          -  218.41919      -     -    0s
     0     0  218.41919    0  104          -  218.41919      -     -    0s
     0     0  234.52541    0  143          -  234.52541      -     -    0s
     0     0  234.52541    0  128          -  234.52541      -     -    0s
     0     0  234.52541    0  141          -  234.52541      -     -    0s
     0     0  272.00000    0  116          -  272.00000      -     -    0s
     0     0  272.00000    0  113          -  272.00000      -     -    0s
     0     0  272.00000    0  129          -  272.00000      -     -    0s
     0     0  272.00000    0  121          -  272.00000      -     -    0s
     0     0  272.00000    0  123          -  272.00000      -     -    0s
     0     0  272.00000    0  102          -  272.00000      -     -    0s
     0     0  272.00000    0   20          -  272.00000      -     -    0s
     0     0  272.00000    0   44          -  272.00000      -     -    0s
     0     0  272.00000    0   24          -  272.00000      -     -    0s
     0     0  272.00000    0   30          -  272.00000      -     -    0s
     0     0  272.00000    0   30          -  272.00000      -     -    0s
     0     0  272.00000    0   13          -  272.00000      -     -    0s
     0     2  272.00000    0   12          -  272.00000      -     -    0s
H 6501  1645                     300.0000000  281.00000  6.33%  17.7    1s

Cutting planes:
  Learned: 75
  Cover: 15
  MIR: 12
  StrongCG: 2
  Flow cover: 54
  RLT: 5
  Relax-and-lift: 5

Explored 6506 nodes (124431 simplex iterations) in 1.57 seconds (1.11 work units)
Thread count was 18 (of 36 available processors)

Solution count 1: 300 

Optimal solution found (tolerance 1.00e-04)
Best objective 3.000000000000e+02, best bound 3.000000000000e+02, gap 0.0000%

Gurobi 11.0.0 (win64) logging started Thu Apr 18 15:13:28 2024

Set parameter LogFile to value "./Results/StripPacking_CutsTest_SU/Logs/SU-StripPacking-15.log"
Set parameter TimeLimit to value 3600
Set parameter Cuts to value 0
Set parameter Presolve to value 1
Set parameter Heuristics to value 0
Gurobi Optimizer version 11.0.0 build v11.0.0rc2 (win64 - Windows 10.0 (19045.2))

CPU model: Intel(R) Core(TM) i9-10980XE CPU @ 3.00GHz, instruction set [SSE2|AVX|AVX2|AVX512]
Thread count: 18 physical cores, 36 logical processors, using up to 18 threads

Optimize a model with 1380 rows, 451 columns and 3390 nonzeros
Model fingerprint: 0xcfe58511
Variable types: 31 continuous, 420 integer (420 binary)
Coefficient statistics:
  Matrix range     [1e+00, 3e+02]
  Objective range  [1e+00, 1e+00]
  Bounds range     [1e+00, 3e+02]
  RHS range        [1e+00, 3e+02]
Presolve removed 13 rows and 3 columns
Presolve time: 0.00s
Presolved: 1367 rows, 448 columns, 4143 nonzeros
Variable types: 31 continuous, 417 integer (417 binary)

Root relaxation: objective 1.690000e+02, 309 iterations, 0.02 seconds (0.00 work units)

    Nodes    |    Current Node    |     Objective Bounds      |     Work
 Expl Unexpl |  Obj  Depth IntInf | Incumbent    BestBd   Gap | It/Node Time

     0     0  169.00000    0   45          -  169.00000      -     -    0s
     0     0  169.00000    0   45          -  169.00000      -     -    0s
     0     2  169.00000    0   42          -  169.00000      -     -    0s
*10504   393              44     300.0000000  300.00000  0.00%   5.0    0s

Explored 11280 nodes (56516 simplex iterations) in 0.57 seconds (0.28 work units)
Thread count was 18 (of 36 available processors)

Solution count 1: 300 

Optimal solution found (tolerance 1.00e-04)
Best objective 3.000000000000e+02, best bound 3.000000000000e+02, gap 0.0000%

Gurobi 11.0.0 (win64) logging started Thu Apr 18 15:13:28 2024

Set parameter LogFile to value "./Results/StripPacking_CutsTest_SU/Logs/SU-StripPacking-15.log"
Set parameter TimeLimit to value 3600
Set parameter Cuts to value 0
Set parameter Presolve to value 0
Set parameter Heuristics to value 1
Gurobi Optimizer version 11.0.0 build v11.0.0rc2 (win64 - Windows 10.0 (19045.2))

CPU model: Intel(R) Core(TM) i9-10980XE CPU @ 3.00GHz, instruction set [SSE2|AVX|AVX2|AVX512]
Thread count: 18 physical cores, 36 logical processors, using up to 18 threads

Optimize a model with 1380 rows, 451 columns and 3390 nonzeros
Model fingerprint: 0xcfe58511
Variable types: 31 continuous, 420 integer (420 binary)
Coefficient statistics:
  Matrix range     [1e+00, 3e+02]
  Objective range  [1e+00, 1e+00]
  Bounds range     [1e+00, 3e+02]
  RHS range        [1e+00, 3e+02]
Variable types: 31 continuous, 420 integer (420 binary)

Root relaxation: objective 1.500000e+02, 368 iterations, 0.00 seconds (0.01 work units)

    Nodes    |    Current Node    |     Objective Bounds      |     Work
 Expl Unexpl |  Obj  Depth IntInf | Incumbent    BestBd   Gap | It/Node Time

     0     0  150.00000    0   66          -  150.00000      -     -    0s
     0     0  169.00000    0   59          -  169.00000      -     -    0s
     0     0  169.00000    0   59          -  169.00000      -     -    0s
     0     2  169.00000    0   53          -  169.00000      -     -    0s
*12878   912              33     300.0000000  300.00000  0.00%   6.9    0s

Explored 12888 nodes (90296 simplex iterations) in 0.94 seconds (0.60 work units)
Thread count was 18 (of 36 available processors)

Solution count 1: 300 

Optimal solution found (tolerance 1.00e-04)
Best objective 3.000000000000e+02, best bound 3.000000000000e+02, gap 0.0000%

Gurobi 11.0.0 (win64) logging started Thu Apr 18 15:13:29 2024

Set parameter LogFile to value "./Results/StripPacking_CutsTest_SU/Logs/SU-StripPacking-15.log"
Set parameter TimeLimit to value 3600
Set parameter Cuts to value 1
Set parameter Presolve to value 1
Set parameter Heuristics to value 0
Gurobi Optimizer version 11.0.0 build v11.0.0rc2 (win64 - Windows 10.0 (19045.2))

CPU model: Intel(R) Core(TM) i9-10980XE CPU @ 3.00GHz, instruction set [SSE2|AVX|AVX2|AVX512]
Thread count: 18 physical cores, 36 logical processors, using up to 18 threads

Optimize a model with 1380 rows, 451 columns and 3390 nonzeros
Model fingerprint: 0xcfe58511
Variable types: 31 continuous, 420 integer (420 binary)
Coefficient statistics:
  Matrix range     [1e+00, 3e+02]
  Objective range  [1e+00, 1e+00]
  Bounds range     [1e+00, 3e+02]
  RHS range        [1e+00, 3e+02]
Presolve removed 13 rows and 3 columns
Presolve time: 0.01s
Presolved: 1367 rows, 448 columns, 4143 nonzeros
Variable types: 31 continuous, 417 integer (417 binary)

Root relaxation: objective 1.690000e+02, 309 iterations, 0.02 seconds (0.00 work units)

    Nodes    |    Current Node    |     Objective Bounds      |     Work
 Expl Unexpl |  Obj  Depth IntInf | Incumbent    BestBd   Gap | It/Node Time

     0     0  169.00000    0   45          -  169.00000      -     -    0s
     0     0  183.09267    0  154          -  183.09267      -     -    0s
     0     0  204.27559    0  126          -  204.27559      -     -    0s
     0     0  206.04942    0  109          -  206.04942      -     -    0s
     0     0  208.30233    0  113          -  208.30233      -     -    0s
     0     0  208.47957    0  119          -  208.47957      -     -    0s
     0     0  208.47957    0  118          -  208.47957      -     -    0s
     0     0  236.02451    0  107          -  236.02451      -     -    0s
     0     0  236.90590    0  104          -  236.90590      -     -    0s
     0     0  236.93314    0  110          -  236.93314      -     -    0s
     0     0  236.93314    0  111          -  236.93314      -     -    0s
     0     0  251.58269    0   95          -  251.58269      -     -    0s
     0     0  251.58269    0   97          -  251.58269      -     -    0s
     0     0  272.00000    0   98          -  272.00000      -     -    0s
     0     0  272.00000    0   94          -  272.00000      -     -    0s
     0     0  272.00000    0   95          -  272.00000      -     -    0s
     0     0  272.00000    0   97          -  272.00000      -     -    0s
     0     0  272.00000    0   29          -  272.00000      -     -    0s
     0     0  272.00000    0   57          -  272.00000      -     -    0s
     0     0  272.00000    0   34          -  272.00000      -     -    0s
     0     0  272.00000    0   40          -  272.00000      -     -    0s
     0     0  272.00000    0   33          -  272.00000      -     -    0s
     0     0  272.00000    0   33          -  272.00000      -     -    0s
     0     2  272.00000    0   22          -  272.00000      -     -    0s
* 6808  1252              23     300.0000000  273.85507  8.71%   2.4    2s

Cutting planes:
  Learned: 130
  Cover: 10
  Clique: 5
  MIR: 10
  StrongCG: 1
  Flow cover: 14
  Zero half: 2
  RLT: 1
  Relax-and-lift: 4

Explored 7031 nodes (84535 simplex iterations) in 2.19 seconds (1.40 work units)
Thread count was 18 (of 36 available processors)

Solution count 1: 300 

Optimal solution found (tolerance 1.00e-04)
Best objective 3.000000000000e+02, best bound 3.000000000000e+02, gap 0.0000%

Gurobi 11.0.0 (win64) logging started Thu Apr 18 15:13:32 2024

Set parameter LogFile to value "./Results/StripPacking_CutsTest_SU/Logs/SU-StripPacking-15.log"
Set parameter TimeLimit to value 3600
Set parameter Cuts to value 1
Set parameter Presolve to value 0
Set parameter Heuristics to value 1
Gurobi Optimizer version 11.0.0 build v11.0.0rc2 (win64 - Windows 10.0 (19045.2))

CPU model: Intel(R) Core(TM) i9-10980XE CPU @ 3.00GHz, instruction set [SSE2|AVX|AVX2|AVX512]
Thread count: 18 physical cores, 36 logical processors, using up to 18 threads

Optimize a model with 1380 rows, 451 columns and 3390 nonzeros
Model fingerprint: 0xcfe58511
Variable types: 31 continuous, 420 integer (420 binary)
Coefficient statistics:
  Matrix range     [1e+00, 3e+02]
  Objective range  [1e+00, 1e+00]
  Bounds range     [1e+00, 3e+02]
  RHS range        [1e+00, 3e+02]
Variable types: 31 continuous, 420 integer (420 binary)

Root relaxation: objective 1.500000e+02, 368 iterations, 0.01 seconds (0.01 work units)

    Nodes    |    Current Node    |     Objective Bounds      |     Work
 Expl Unexpl |  Obj  Depth IntInf | Incumbent    BestBd   Gap | It/Node Time

     0     0  150.00000    0   66          -  150.00000      -     -    0s
     0     0  169.00000    0   59          -  169.00000      -     -    0s
     0     0  184.76256    0  164          -  184.76256      -     -    0s
     0     0  208.73354    0  148          -  208.73354      -     -    0s
     0     0  217.54745    0  134          -  217.54745      -     -    0s
     0     0  218.41919    0  128          -  218.41919      -     -    0s
     0     0  218.41919    0  104          -  218.41919      -     -    0s
     0     0  218.41919    0  143          -  218.41919      -     -    0s
     0     0  234.52541    0  128          -  234.52541      -     -    0s
     0     0  234.52541    0  141          -  234.52541      -     -    0s
     0     0  242.54667    0  116          -  242.54667      -     -    0s
     0     0  242.54667    0  113          -  242.54667      -     -    0s
     0     0  272.00000    0  129          -  272.00000      -     -    0s
     0     0  272.00000    0  121          -  272.00000      -     -    0s
     0     0  272.00000    0  123          -  272.00000      -     -    0s
     0     0  272.00000    0  102          -  272.00000      -     -    0s
     0     0  272.00000    0   24          -  272.00000      -     -    0s
     0     0  272.00000    0   60          -  272.00000      -     -    0s
     0     0  272.00000    0   29          -  272.00000      -     -    0s
     0     0  272.00000    0   74          -  272.00000      -     -    0s
     0     0  272.00000    0   30          -  272.00000      -     -    0s
     0     0  272.00000    0   22          -  272.00000      -     -    0s
     0     2  272.00000    0   14          -  272.00000      -     -    0s
H 5213  1478                     300.0000000  281.00000  6.33%  11.0    1s

Cutting planes:
  Learned: 72
  Cover: 20
  MIR: 11
  Flow cover: 46
  RLT: 9
  Relax-and-lift: 3
  BQP: 3

Explored 5216 nodes (68003 simplex iterations) in 1.50 seconds (1.07 work units)
Thread count was 18 (of 36 available processors)

Solution count 1: 300 

Optimal solution found (tolerance 1.00e-04)
Best objective 3.000000000000e+02, best bound 3.000000000000e+02, gap 0.0000%

Gurobi 11.0.0 (win64) logging started Thu Apr 18 15:13:33 2024

Set parameter LogFile to value "./Results/StripPacking_CutsTest_SU/Logs/SU-StripPacking-15.log"
Set parameter TimeLimit to value 3600
Set parameter Cuts to value 0
Set parameter Presolve to value 1
Set parameter Heuristics to value 1
Gurobi Optimizer version 11.0.0 build v11.0.0rc2 (win64 - Windows 10.0 (19045.2))

CPU model: Intel(R) Core(TM) i9-10980XE CPU @ 3.00GHz, instruction set [SSE2|AVX|AVX2|AVX512]
Thread count: 18 physical cores, 36 logical processors, using up to 18 threads

Optimize a model with 1380 rows, 451 columns and 3390 nonzeros
Model fingerprint: 0xcfe58511
Variable types: 31 continuous, 420 integer (420 binary)
Coefficient statistics:
  Matrix range     [1e+00, 3e+02]
  Objective range  [1e+00, 1e+00]
  Bounds range     [1e+00, 3e+02]
  RHS range        [1e+00, 3e+02]
Presolve removed 13 rows and 3 columns
Presolve time: 0.00s
Presolved: 1367 rows, 448 columns, 4143 nonzeros
Variable types: 31 continuous, 417 integer (417 binary)

Root relaxation: objective 1.690000e+02, 309 iterations, 0.00 seconds (0.00 work units)

    Nodes    |    Current Node    |     Objective Bounds      |     Work
 Expl Unexpl |  Obj  Depth IntInf | Incumbent    BestBd   Gap | It/Node Time

     0     0  169.00000    0   45          -  169.00000      -     -    0s
     0     0  169.00000    0   45          -  169.00000      -     -    0s
     0     2  169.00000    0   45          -  169.00000      -     -    1s
* 7629   404              39     300.0000000  297.00000  1.00%   5.4    2s

Explored 9643 nodes (47579 simplex iterations) in 2.25 seconds (2.91 work units)
Thread count was 18 (of 36 available processors)

Solution count 1: 300 

Optimal solution found (tolerance 1.00e-04)
Best objective 3.000000000000e+02, best bound 3.000000000000e+02, gap 0.0000%

Gurobi 11.0.0 (win64) logging started Thu Apr 18 15:13:36 2024

Set parameter LogFile to value "./Results/StripPacking_CutsTest_SU/Logs/SU-StripPacking-15.log"
Set parameter TimeLimit to value 3600
Set parameter Cuts to value 0
Set parameter Presolve to value 0
Set parameter Heuristics to value 0
Gurobi Optimizer version 11.0.0 build v11.0.0rc2 (win64 - Windows 10.0 (19045.2))

CPU model: Intel(R) Core(TM) i9-10980XE CPU @ 3.00GHz, instruction set [SSE2|AVX|AVX2|AVX512]
Thread count: 18 physical cores, 36 logical processors, using up to 18 threads

Optimize a model with 1380 rows, 451 columns and 3390 nonzeros
Model fingerprint: 0xcfe58511
Variable types: 31 continuous, 420 integer (420 binary)
Coefficient statistics:
  Matrix range     [1e+00, 3e+02]
  Objective range  [1e+00, 1e+00]
  Bounds range     [1e+00, 3e+02]
  RHS range        [1e+00, 3e+02]
Variable types: 31 continuous, 420 integer (420 binary)

Root relaxation: objective 1.500000e+02, 368 iterations, 0.00 seconds (0.01 work units)

    Nodes    |    Current Node    |     Objective Bounds      |     Work
 Expl Unexpl |  Obj  Depth IntInf | Incumbent    BestBd   Gap | It/Node Time

     0     0  150.00000    0   66          -  150.00000      -     -    0s
     0     0  169.00000    0   59          -  169.00000      -     -    0s
     0     0  169.00000    0   38          -  169.00000      -     -    0s
     0     2  169.00000    0   33          -  169.00000      -     -    0s
* 2444   490              36     300.0000000  272.00000  9.33%   8.7    0s

Explored 5580 nodes (39535 simplex iterations) in 0.44 seconds (0.30 work units)
Thread count was 18 (of 36 available processors)

Solution count 1: 300 

Optimal solution found (tolerance 1.00e-04)
Best objective 3.000000000000e+02, best bound 3.000000000000e+02, gap 0.0000%
